p cnf 1258
-24 -388
-25 -391
-26 -394
-27 -397
-28 -400
-29 -403
-30 -406
-31 -409
-32 -412
-33 -415
-34 -418
-35 -421
-36 -424
-37 -427
-38 -430
-39 -433
-40 -436
-41 -439
-42 -442
-43 -445
-44 -448
-45 -451
-46 -454
-47 455
-48 456
-49 457
-50 458
-51 -25
-51 -26
25 26 51
-52 -27
-52 -28
27 28 52
-53 -29
-53 -30
29 30 53
-54 -31
-54 -32
31 32 54
-55 -33
-55 -34
33 34 55
-56 -35
-56 -36
35 36 56
-57 -37
-57 -38
37 38 57
-58 -39
-58 -40
39 40 58
-59 -41
-59 -42
41 42 59
-60 -43
-60 -44
43 44 60
-61 -45
-61 -46
45 46 61
-62 -47
-62 -48
47 48 62
-63 -49
-63 -50
49 50 63
-64 51
-64 52
-51 -52 64
-65 53
-65 54
-53 -54 65
-66 55
-66 56
-55 -56 66
-67 57
-67 58
-57 -58 67
-68 59
-68 60
-59 -60 68
-69 61
-69 62
-61 -62 69
-70 64
-70 65
-64 -65 70
-71 66
-71 67
-66 -67 71
-72 68
-72 69
-68 -69 72
-73 70
-73 71
-70 -71 73
-74 63
-74 72
-63 -72 74
-75 73
-75 74
-73 -74 75
-76 -24
-76 25
24 -25 76
-77 24
-77 -25
-24 25 77
-78 -76
-78 -77
76 77 78
-79 24
-79 25
-24 -25 79
-80 -24
-80 -78
24 78 80
-81 24
-81 78
-24 -78 81
-82 -80
-82 -81
80 81 82
-83 24
-83 -78
-24 78 83
-84 -79
-84 -83
79 83 84
-85 -25
-85 26
25 -26 85
-86 25
-86 -26
-25 26 86
-87 -85
-87 -86
85 86 87
-88 25
-88 26
-25 -26 88
-89 84
-89 -87
-84 87 89
-90 -84
-90 87
84 -87 90
-91 -89
-91 -90
89 90 91
-92 -84
-92 -87
84 87 92
-93 -88
-93 -92
88 92 93
-94 -26
-94 27
26 -27 94
-95 26
-95 -27
-26 27 95
-96 -94
-96 -95
94 95 96
-97 26
-97 27
-26 -27 97
-98 93
-98 -96
-93 96 98
-99 -93
-99 96
93 -96 99
-100 -98
-100 -99
98 99 100
-101 -93
-101 -96
93 96 101
-102 -97
-102 -101
97 101 102
-103 -27
-103 28
27 -28 103
-104 27
-104 -28
-27 28 104
-105 -103
-105 -104
103 104 105
-106 27
-106 28
-27 -28 106
-107 102
-107 -105
-102 105 107
-108 -102
-108 105
102 -105 108
-109 -107
-109 -108
107 108 109
-110 -102
-110 -105
102 105 110
-111 -106
-111 -110
106 110 111
-112 -28
-112 29
28 -29 112
-113 28
-113 -29
-28 29 113
-114 -112
-114 -113
112 113 114
-115 28
-115 29
-28 -29 115
-116 111
-116 -114
-111 114 116
-117 -111
-117 114
111 -114 117
-118 -116
-118 -117
116 117 118
-119 -111
-119 -114
111 114 119
-120 -115
-120 -119
115 119 120
-121 -29
-121 30
29 -30 121
-122 29
-122 -30
-29 30 122
-123 -121
-123 -122
121 122 123
-124 29
-124 30
-29 -30 124
-125 120
-125 -123
-120 123 125
-126 -120
-126 123
120 -123 126
-127 -125
-127 -126
125 126 127
-128 -120
-128 -123
120 123 128
-129 -124
-129 -128
124 128 129
-130 -30
-130 31
30 -31 130
-131 30
-131 -31
-30 31 131
-132 -130
-132 -131
130 131 132
-133 30
-133 31
-30 -31 133
-134 129
-134 -132
-129 132 134
-135 -129
-135 132
129 -132 135
-136 -134
-136 -135
134 135 136
-137 -129
-137 -132
129 132 137
-138 -133
-138 -137
133 137 138
-139 -31
-139 32
31 -32 139
-140 31
-140 -32
-31 32 140
-141 -139
-141 -140
139 140 141
-142 31
-142 32
-31 -32 142
-143 138
-143 -141
-138 141 143
-144 -138
-144 141
138 -141 144
-145 -143
-145 -144
143 144 145
-146 -138
-146 -141
138 141 146
-147 -142
-147 -146
142 146 147
-148 -32
-148 33
32 -33 148
-149 32
-149 -33
-32 33 149
-150 -148
-150 -149
148 149 150
-151 32
-151 33
-32 -33 151
-152 147
-152 -150
-147 150 152
-153 -147
-153 150
147 -150 153
-154 -152
-154 -153
152 153 154
-155 -147
-155 -150
147 150 155
-156 -151
-156 -155
151 155 156
-157 -33
-157 34
33 -34 157
-158 33
-158 -34
-33 34 158
-159 -157
-159 -158
157 158 159
-160 33
-160 34
-33 -34 160
-161 156
-161 -159
-156 159 161
-162 -156
-162 159
156 -159 162
-163 -161
-163 -162
161 162 163
-164 -156
-164 -159
156 159 164
-165 -160
-165 -164
160 164 165
-166 -34
-166 35
34 -35 166
-167 34
-167 -35
-34 35 167
-168 -166
-168 -167
166 167 168
-169 34
-169 35
-34 -35 169
-170 165
-170 -168
-165 168 170
-171 -165
-171 168
165 -168 171
-172 -170
-172 -171
170 171 172
-173 -165
-173 -168
165 168 173
-174 -169
-174 -173
169 173 174
-175 -35
-175 36
35 -36 175
-176 35
-176 -36
-35 36 176
-177 -175
-177 -176
175 176 177
-178 35
-178 36
-35 -36 178
-179 174
-179 -177
-174 177 179
-180 -174
-180 177
174 -177 180
-181 -179
-181 -180
179 180 181
-182 -174
-182 -177
174 177 182
-183 -178
-183 -182
178 182 183
-184 -36
-184 37
36 -37 184
-185 36
-185 -37
-36 37 185
-186 -184
-186 -185
184 185 186
-187 36
-187 37
-36 -37 187
-188 183
-188 -186
-183 186 188
-189 -183
-189 186
183 -186 189
-190 -188
-190 -189
188 189 190
-191 -183
-191 -186
183 186 191
-192 -187
-192 -191
187 191 192
-193 -37
-193 38
37 -38 193
-194 37
-194 -38
-37 38 194
-195 -193
-195 -194
193 194 195
-196 37
-196 38
-37 -38 196
-197 192
-197 -195
-192 195 197
-198 -192
-198 195
192 -195 198
-199 -197
-199 -198
197 198 199
-200 -192
-200 -195
192 195 200
-201 -196
-201 -200
196 200 201
-202 -38
-202 39
38 -39 202
-203 38
-203 -39
-38 39 203
-204 -202
-204 -203
202 203 204
-205 38
-205 39
-38 -39 205
-206 201
-206 -204
-201 204 206
-207 -201
-207 204
201 -204 207
-208 -206
-208 -207
206 207 208
-209 -201
-209 -204
201 204 209
-210 -205
-210 -209
205 209 210
-211 -39
-211 40
39 -40 211
-212 39
-212 -40
-39 40 212
-213 -211
-213 -212
211 212 213
-214 39
-214 40
-39 -40 214
-215 210
-215 -213
-210 213 215
-216 -210
-216 213
210 -213 216
-217 -215
-217 -216
215 216 217
-218 -210
-218 -213
210 213 218
-219 -214
-219 -218
214 218 219
-220 -40
-220 41
40 -41 220
-221 40
-221 -41
-40 41 221
-222 -220
-222 -221
220 221 222
-223 40
-223 41
-40 -41 223
-224 219
-224 -222
-219 222 224
-225 -219
-225 222
219 -222 225
-226 -224
-226 -225
224 225 226
-227 -219
-227 -222
219 222 227
-228 -223
-228 -227
223 227 228
-229 -41
-229 42
41 -42 229
-230 41
-230 -42
-41 42 230
-231 -229
-231 -230
229 230 231
-232 41
-232 42
-41 -42 232
-233 228
-233 -231
-228 231 233
-234 -228
-234 231
228 -231 234
-235 -233
-235 -234
233 234 235
-236 -228
-236 -231
228 231 236
-237 -232
-237 -236
232 236 237
-238 -42
-238 43
42 -43 238
-239 42
-239 -43
-42 43 239
-240 -238
-240 -239
238 239 240
-241 42
-241 43
-42 -43 241
-242 237
-242 -240
-237 240 242
-243 -237
-243 240
237 -240 243
-244 -242
-244 -243
242 243 244
-245 -237
-245 -240
237 240 245
-246 -241
-246 -245
241 245 246
-247 -43
-247 44
43 -44 247
-248 43
-248 -44
-43 44 248
-249 -247
-249 -248
247 248 249
-250 43
-250 44
-43 -44 250
-251 246
-251 -249
-246 249 251
-252 -246
-252 249
246 -249 252
-253 -251
-253 -252
251 252 253
-254 -246
-254 -249
246 249 254
-255 -250
-255 -254
250 254 255
-256 -44
-256 45
44 -45 256
-257 44
-257 -45
-44 45 257
-258 -256
-258 -257
256 257 258
-259 44
-259 45
-44 -45 259
-260 255
-260 -258
-255 258 260
-261 -255
-261 258
255 -258 261
-262 -260
-262 -261
260 261 262
-263 -255
-263 -258
255 258 263
-264 -259
-264 -263
259 263 264
-265 -45
-265 46
45 -46 265
-266 45
-266 -46
-45 46 266
-267 -265
-267 -266
265 266 267
-268 45
-268 46
-45 -46 268
-269 264
-269 -267
-264 267 269
-270 -264
-270 267
264 -267 270
-271 -269
-271 -270
269 270 271
-272 -264
-272 -267
264 267 272
-273 -268
-273 -272
268 272 273
-274 -46
-274 47
46 -47 274
-275 46
-275 -47
-46 47 275
-276 -274
-276 -275
274 275 276
-277 46
-277 47
-46 -47 277
-278 273
-278 -276
-273 276 278
-279 -273
-279 276
273 -276 279
-280 -278
-280 -279
278 279 280
-281 -273
-281 -276
273 276 281
-282 -277
-282 -281
277 281 282
-283 -47
-283 48
47 -48 283
-284 47
-284 -48
-47 48 284
-285 -283
-285 -284
283 284 285
-286 47
-286 48
-47 -48 286
-287 282
-287 -285
-282 285 287
-288 -282
-288 285
282 -285 288
-289 -287
-289 -288
287 288 289
-290 -282
-290 -285
282 285 290
-291 -286
-291 -290
286 290 291
-292 -48
-292 49
48 -49 292
-293 48
-293 -49
-48 49 293
-294 -292
-294 -293
292 293 294
-295 48
-295 49
-48 -49 295
-296 291
-296 -294
-291 294 296
-297 -291
-297 294
291 -294 297
-298 -296
-298 -297
296 297 298
-299 -291
-299 -294
291 294 299
-300 -295
-300 -299
295 299 300
-301 -49
-301 50
49 -50 301
-302 49
-302 -50
-49 50 302
-303 -301
-303 -302
301 302 303
-304 49
-304 50
-49 -50 304
-305 300
-305 -303
-300 303 305
-306 -300
-306 303
300 -303 306
-307 -305
-307 -306
305 306 307
-308 -300
-308 -303
300 303 308
-309 -304
-309 -308
304 308 309
-310 24
-310 -82
-24 82 310
-311 -24
-311 26
24 -26 311
-312 -310
-312 -311
310 311 312
-313 24
-313 -91
-24 91 313
-314 -24
-314 27
24 -27 314
-315 -313
-315 -314
313 314 315
-316 24
-316 -100
-24 100 316
-317 -24
-317 28
24 -28 317
-318 -316
-318 -317
316 317 318
-319 24
-319 -109
-24 109 319
-320 -24
-320 29
24 -29 320
-321 -319
-321 -320
319 320 321
-322 24
-322 -118
-24 118 322
-323 -24
-323 30
24 -30 323
-324 -322
-324 -323
322 323 324
-325 24
-325 -127
-24 127 325
-326 -24
-326 31
24 -31 326
-327 -325
-327 -326
325 326 327
-328 24
-328 -136
-24 136 328
-329 -24
-329 32
24 -32 329
-330 -328
-330 -329
328 329 330
-331 24
-331 -145
-24 145 331
-332 -24
-332 33
24 -33 332
-333 -331
-333 -332
331 332 333
-334 24
-334 -154
-24 154 334
-335 -24
-335 34
24 -34 335
-336 -334
-336 -335
334 335 336
-337 24
-337 -163
-24 163 337
-338 -24
-338 35
24 -35 338
-339 -337
-339 -338
337 338 339
-340 24
-340 -172
-24 172 340
-341 -24
-341 36
24 -36 341
-342 -340
-342 -341
340 341 342
-343 24
-343 -181
-24 181 343
-344 -24
-344 37
24 -37 344
-345 -343
-345 -344
343 344 345
-346 24
-346 -190
-24 190 346
-347 -24
-347 38
24 -38 347
-348 -346
-348 -347
346 347 348
-349 24
-349 -199
-24 199 349
-350 -24
-350 39
24 -39 350
-351 -349
-351 -350
349 350 351
-352 24
-352 -208
-24 208 352
-353 -24
-353 40
24 -40 353
-354 -352
-354 -353
352 353 354
-355 24
-355 -217
-24 217 355
-356 -24
-356 41
24 -41 356
-357 -355
-357 -356
355 356 357
-358 24
-358 -226
-24 226 358
-359 -24
-359 42
24 -42 359
-360 -358
-360 -359
358 359 360
-361 24
-361 -235
-24 235 361
-362 -24
-362 43
24 -43 362
-363 -361
-363 -362
361 362 363
-364 24
-364 -244
-24 244 364
-365 -24
-365 44
24 -44 365
-366 -364
-366 -365
364 365 366
-367 24
-367 -253
-24 253 367
-368 -24
-368 45
24 -45 368
-369 -367
-369 -368
367 368 369
-370 24
-370 -262
-24 262 370
-371 -24
-371 46
24 -46 371
-372 -370
-372 -371
370 371 372
-373 24
-373 -271
-24 271 373
-374 -24
-374 47
24 -47 374
-375 -373
-375 -374
373 374 375
-376 24
-376 -280
-24 280 376
-377 -24
-377 48
24 -48 377
-378 -376
-378 -377
376 377 378
-379 24
-379 -289
-24 289 379
-380 -24
-380 49
24 -49 380
-381 -379
-381 -380
379 380 381
-382 24
-382 -298
-24 298 382
-383 -24
-383 50
24 -50 383
-384 -382
-384 -383
382 383 384
-385 24
-385 -307
-24 307 385
-386 1
-386 75
-1 -75 386
-387 -75
-387 76
75 -76 387
-388 -386
-388 -387
386 387 388
-389 2
-389 75
-2 -75 389
-390 -75
-390 -312
75 312 390
-391 -389
-391 -390
389 390 391
-392 3
-392 75
-3 -75 392
-393 -75
-393 -315
75 315 393
-394 -392
-394 -393
392 393 394
-395 4
-395 75
-4 -75 395
-396 -75
-396 -318
75 318 396
-397 -395
-397 -396
395 396 397
-398 5
-398 75
-5 -75 398
-399 -75
-399 -321
75 321 399
-400 -398
-400 -399
398 399 400
-401 6
-401 75
-6 -75 401
-402 -75
-402 -324
75 324 402
-403 -401
-403 -402
401 402 403
-404 7
-404 75
-7 -75 404
-405 -75
-405 -327
75 327 405
-406 -404
-406 -405
404 405 406
-407 8
-407 75
-8 -75 407
-408 -75
-408 -330
75 330 408
-409 -407
-409 -408
407 408 409
-410 9
-410 75
-9 -75 410
-411 -75
-411 -333
75 333 411
-412 -410
-412 -411
410 411 412
-413 10
-413 75
-10 -75 413
-414 -75
-414 -336
75 336 414
-415 -413
-415 -414
413 414 415
-416 11
-416 75
-11 -75 416
-417 -75
-417 -339
75 339 417
-418 -416
-418 -417
416 417 418
-419 12
-419 75
-12 -75 419
-420 -75
-420 -342
75 342 420
-421 -419
-421 -420
419 420 421
-422 13
-422 75
-13 -75 422
-423 -75
-423 -345
75 345 423
-424 -422
-424 -423
422 423 424
-425 14
-425 75
-14 -75 425
-426 -75
-426 -348
75 348 426
-427 -425
-427 -426
425 426 427
-428 15
-428 75
-15 -75 428
-429 -75
-429 -351
75 351 429
-430 -428
-430 -429
428 429 430
-431 16
-431 75
-16 -75 431
-432 -75
-432 -354
75 354 432
-433 -431
-433 -432
431 432 433
-434 17
-434 75
-17 -75 434
-435 -75
-435 -357
75 357 435
-436 -434
-436 -435
434 435 436
-437 18
-437 75
-18 -75 437
-438 -75
-438 -360
75 360 438
-439 -437
-439 -438
437 438 439
-440 19
-440 75
-19 -75 440
-441 -75
-441 -363
75 363 441
-442 -440
-442 -441
440 441 442
-443 20
-443 75
-20 -75 443
-444 -75
-444 -366
75 366 444
-445 -443
-445 -444
443 444 445
-446 21
-446 75
-21 -75 446
-447 -75
-447 -369
75 369 447
-448 -446
-448 -447
446 447 448
-449 22
-449 75
-22 -75 449
-450 -75
-450 -372
75 372 450
-451 -449
-451 -450
449 450 451
-452 23
-452 75
-23 -75 452
-453 -75
-453 -375
75 375 453
-454 -452
-454 -453
452 453 454
-455 -75
-455 -378
75 378 455
-456 -75
-456 -381
75 381 456
-457 -75
-457 -384
75 384 457
-458 -75
-458 385
75 -385 458
-459 -50
-459 309
50 -309 459
-460 24
-460 -459
-24 459 460
460
